(set-logic ALL)
(declare-fun var0 () String)
(assert (str.in_re var0 (re.++ (re.+ (re.* (re.union (re.union (re.union (re.+ (re.union (re.* (re.* (re.+ (re.* (re.* (re.union (str.to_re "0") (str.to_re "11"))))))) (re.* (re.+ (re.* (re.+ (re.union (re.union (str.to_re "2") (str.to_re "3")) (re.union (str.to_re "444") (str.to_re "55"))))))))) (re.+ (re.+ (re.* (re.+ (re.* (re.union (re.union (re.+ (str.to_re "6")) (re.+ (str.to_re "77"))) (re.union (re.* (str.to_re "888")) (re.* (str.to_re "999")))))))))) (re.union (re.union (re.union (re.union (re.union (re.* (re.* (re.+ (re.* (str.to_re "a"))))) (re.* (re.* (re.union (re.+ (str.to_re "b")) (re.+ (str.to_re "c")))))) (re.union (re.+ (re.union (re.union (re.+ (str.to_re "dd")) (re.+ (str.to_re "ee"))) (re.union (re.union (str.to_re "f") (str.to_re "ggg")) (re.union (str.to_re "hh") (str.to_re "i"))))) (re.+ (re.+ (re.+ (re.+ (str.to_re "j"))))))) (re.union (re.* (re.union (re.union (re.* (re.* (str.to_re "k"))) (re.* (re.* (str.to_re "lll")))) (re.union (re.union (re.* (str.to_re "mm")) (re.* (str.to_re "nnn"))) (re.union (re.+ (str.to_re "o")) (re.+ (str.to_re "ppp")))))) (re.* (re.+ (re.* (re.union (re.* (str.to_re "qqq")) (re.* (str.to_re "rr")))))))) (re.union (re.* (re.* (re.+ (re.* (re.* (re.union (str.to_re "sss") (str.to_re "tt"))))))) (re.* (re.+ (re.* (re.union (re.* (re.union (str.to_re "uu") (str.to_re "vv"))) (re.* (re.* (str.to_re "www"))))))))) (re.union (re.* (re.* (re.union (re.union (re.* (re.* (re.union (str.to_re "x") (str.to_re "y")))) (re.* (re.+ (re.+ (str.to_re "zz"))))) (re.union (re.union (re.union (re.* (str.to_re "AAA")) (re.* (str.to_re "BBB"))) (re.union (re.+ (str.to_re "CC")) (re.+ (str.to_re "DDD")))) (re.union (re.union (re.union (str.to_re "E") (str.to_re "FFF")) (re.union (str.to_re "GGG") (str.to_re "HHH"))) (re.union (re.+ (str.to_re "III")) (re.+ (str.to_re "J")))))))) (re.* (re.* (re.+ (re.union (re.+ (re.union (re.union (str.to_re "KK") (str.to_re "L")) (re.union (str.to_re "MM") (str.to_re "N")))) (re.+ (re.* (re.* (str.to_re "OO"))))))))))) (re.union (re.union (re.union (re.union (re.+ (re.union (re.* (re.union (re.union (re.union (str.to_re "PPP") (str.to_re "QQQ")) (re.union (str.to_re "RR") (str.to_re "SS"))) (re.union (re.+ (str.to_re "TT")) (re.+ (str.to_re "UU"))))) (re.* (re.union (re.* (re.* (str.to_re "VV"))) (re.* (re.union (str.to_re "W") (str.to_re "XXX"))))))) (re.+ (re.+ (re.+ (re.* (re.union (re.+ (str.to_re "YY")) (re.+ (str.to_re "ZZZ")))))))) (re.union (re.union (re.+ (re.+ (re.+ (re.* (re.* (str.to_re "!!!")))))) (re.+ (re.union (re.+ (re.* (re.* (str.to_re """")))) (re.+ (re.union (re.* (str.to_re "##")) (re.* (str.to_re "$$"))))))) (re.union (re.union (re.* (re.union (re.union (re.* (str.to_re "%%%")) (re.* (str.to_re "&&&"))) (re.union (re.+ (str.to_re "'")) (re.+ (str.to_re "((("))))) (re.* (re.+ (re.* (re.* (str.to_re "))")))))) (re.union (re.* (re.* (re.+ (re.union (str.to_re "*") (str.to_re "+"))))) (re.* (re.+ (re.+ (re.* (str.to_re ",,,"))))))))) (re.union (re.+ (re.union (re.union (re.union (re.union (re.+ (re.union (str.to_re "--") (str.to_re "."))) (re.+ (re.union (str.to_re "//") (str.to_re "::")))) (re.union (re.* (re.+ (str.to_re ";"))) (re.* (re.union (str.to_re "<<<") (str.to_re "="))))) (re.union (re.union (re.union (re.* (str.to_re ">>>")) (re.* (str.to_re "???"))) (re.union (re.* (str.to_re "@@")) (re.* (str.to_re "[[[")))) (re.union (re.+ (re.union (str.to_re "\\\\") (str.to_re "]]"))) (re.+ (re.+ (str.to_re "^^^")))))) (re.union (re.+ (re.union (re.union (re.union (str.to_re "___") (str.to_re "``")) (re.union (str.to_re "{") (str.to_re "|"))) (re.union (re.union (str.to_re "}}}") (str.to_re "~~~")) (re.union (str.to_re "000") (str.to_re "111"))))) (re.+ (re.union (re.union (re.+ (str.to_re "222")) (re.+ (str.to_re "333"))) (re.union (re.+ (str.to_re "44")) (re.+ (str.to_re "55")))))))) (re.+ (re.+ (re.* (re.* (re.+ (re.+ (re.union (str.to_re "666") (str.to_re "77")))))))))) (re.union (re.union (re.+ (re.* (re.union (re.+ (re.+ (re.union (re.union (str.to_re "88") (str.to_re "9")) (re.union (str.to_re "aa") (str.to_re "bb"))))) (re.+ (re.* (re.+ (re.+ (str.to_re "c")))))))) (re.+ (re.union (re.union (re.* (re.+ (re.union (re.* (str.to_re "dd")) (re.* (str.to_re "ee"))))) (re.* (re.+ (re.+ (re.* (str.to_re "fff")))))) (re.union (re.union (re.* (re.* (re.* (str.to_re "gg")))) (re.* (re.+ (re.union (str.to_re "hh") (str.to_re "iii"))))) (re.union (re.+ (re.* (re.* (str.to_re "jjj")))) (re.+ (re.* (re.union (str.to_re "kk") (str.to_re "l"))))))))) (re.union (re.union (re.+ (re.* (re.* (re.* (re.* (re.* (str.to_re "mm"))))))) (re.+ (re.+ (re.* (re.* (re.+ (re.* (str.to_re "nnn")))))))) (re.union (re.+ (re.+ (re.+ (re.+ (re.+ (re.union (str.to_re "ooo") (str.to_re "p"))))))) (re.+ (re.union (re.+ (re.* (re.union (re.union (str.to_re "qqq") (str.to_re "rrr")) (re.union (str.to_re "sss") (str.to_re "ttt"))))) (re.+ (re.* (re.union (re.* (str.to_re "uuu")) (re.* (str.to_re "vvv")))))))))))))) (re.+ (re.+ (re.+ (re.union (re.union (re.union (re.+ (re.+ (re.union (re.union (re.union (re.+ (re.union (str.to_re "w") (str.to_re "xxx"))) (re.+ (re.+ (str.to_re "yy")))) (re.union (re.* (re.* (str.to_re "zz"))) (re.* (re.union (str.to_re "A") (str.to_re "BBB"))))) (re.union (re.* (re.union (re.+ (str.to_re "C")) (re.+ (str.to_re "DDD")))) (re.* (re.union (re.+ (str.to_re "EEE")) (re.+ (str.to_re "FFF")))))))) (re.+ (re.+ (re.union (re.* (re.* (re.* (re.+ (str.to_re "GG"))))) (re.* (re.* (re.+ (re.+ (str.to_re "H"))))))))) (re.union (re.* (re.+ (re.union (re.union (re.union (re.* (re.* (str.to_re "II"))) (re.* (re.union (str.to_re "JJ") (str.to_re "KK")))) (re.union (re.union (re.+ (str.to_re "LL")) (re.+ (str.to_re "MM"))) (re.union (re.+ (str.to_re "NN")) (re.+ (str.to_re "OO"))))) (re.union (re.union (re.* (re.+ (str.to_re "PP"))) (re.* (re.union (str.to_re "QQQ") (str.to_re "RR")))) (re.union (re.* (re.union (str.to_re "S") (str.to_re "TT"))) (re.* (re.+ (str.to_re "UU")))))))) (re.* (re.+ (re.* (re.union (re.* (re.union (re.union (str.to_re "V") (str.to_re "WWW")) (re.union (str.to_re "X") (str.to_re "YY")))) (re.* (re.+ (re.union (str.to_re "ZZ") (str.to_re "!!")))))))))) (re.union (re.union (re.* (re.* (re.* (re.union (re.union (re.+ (re.union (str.to_re """""") (str.to_re "#"))) (re.+ (re.* (str.to_re "$$")))) (re.union (re.* (re.* (str.to_re "%%%"))) (re.* (re.* (str.to_re "&")))))))) (re.* (re.* (re.+ (re.* (re.+ (re.+ (re.union (str.to_re "'''") (str.to_re "((("))))))))) (re.union (re.* (re.* (re.+ (re.* (re.+ (re.* (re.+ (str.to_re "))")))))))) (re.* (re.* (re.union (re.+ (re.+ (re.+ (re.+ (str.to_re "**"))))) (re.+ (re.union (re.+ (re.union (str.to_re "+++") (str.to_re ",,"))) (re.+ (re.union (str.to_re "---") (str.to_re "...")))))))))))))))))
(assert (<= 15 (str.len var0)))
(check-sat)